p cnf 20 28
e 20 0
a 15 10 3 9 0
e 17 12 11 8 2 13 18 19 16 4 5 6 7 14 1 0
-8 18 6 -9 0
4 0
1 -12 -19 0
-19 0
-14 -13 4 -2 -10 0
-15 -4 5 -10 0
18 -4 6 0
-11 15 0
-6 -1 0
-1 0
19 7 0
13 0
-12 -18 0
13 0
14 0
4 0
20 -12 -4 0
-8 -11 7 0
-14 0
-17 0
1 9 -18 -13 -10 -5 0
-5 0
13 -19 0
-2 0
20 0
-13 0
12 0
-13 -14 -17 -1 7 0
